Starting solution of the Linear programming relaxation problem using Primal Simplex

Coin0506I Presolve 121306 (-121235) rows, 2485 (0) columns and 247440 (-242470) elements
Clp0030I 28 infeas 47.015621, obj 644.71675 - mu 0.050759557, its 105, 92 interior
Clp0030I 39 infeas 0.31294914, obj 1306.7227 - mu 0.0018794197, its 105, 219 interior
Clp0030I 50 infeas 0.014217853, obj 1308.9671 - mu 2.3193432e-05, its 105, 424 interior
Clp0030I 60 infeas 0.00017381892, obj 1308.9543 - mu 8.5875832e-07, its 105, 448 interior
Clp1000I sum of infeasibilities 5.69999e-05 - average 4.69885e-10, 2037 fixed columns
Coin0506I Presolve 2958 (-118348) rows, 448 (-2037) columns and 6670 (-240770) elements
Clp0006I 0  Obj 1308.9543 Primal inf 8.4972539e-06 (19) Dual inf 2.25e+10 (440)
Clp0029I End of values pass after 448 iterations
Clp0014I Perturbing problem by 0.001% of 1 - largest nonzero change 2.9943246e-05 ( 0.0014971623%) - largest zero change 2.9576128e-05
Clp0000I Optimal - objective value 1302.0042
Clp0000I Optimal - objective value 1302.0042
Coin0511I After Postsolve, objective 1302.0042, infeasibilities - dual 0 (0), primal 0 (0)
Clp0006I 0  Obj 1302.0042
Clp0000I Optimal - objective value 1302.0042
Clp0000I Optimal - objective value 1302.0042
Clp0000I Optimal - objective value 1302.0042
Coin0511I After Postsolve, objective 1302.0042, infeasibilities - dual 0 (0), primal 0 (0)
Clp0032I Optimal objective 1302.004167 - 0 iterations time 3.302, Presolve 0.22, Idiot 3.06

Starting MIP optimization
Cbc0045I MIPStart provided solution with cost 1480.62
Cbc0012I Integer solution of 1480.6171 found by Reduced search after 0 iterations and 0 nodes (0.74 seconds)
Cbc0013I At root node, 0 cuts changed objective from 1302.0042 to 1302.0042 in 1 passes
Cbc0014I Cut generator 0 (LazyConstraints) - 0 row cuts average 0.0 elements, 0 column cuts (0 active)  in 0.046 seconds - new frequency is 1
Cbc0014I Cut generator 1 (Probing) - 0 row cuts average 0.0 elements, 0 column cuts (0 active)  in 0.000 seconds - new frequency is -100
Cbc0014I Cut generator 2 (Gomory) - 0 row cuts average 0.0 elements, 0 column cuts (0 active)  in 0.000 seconds - new frequency is -100
Cbc0014I Cut generator 3 (Knapsack) - 0 row cuts average 0.0 elements, 0 column cuts (0 active)  in 0.000 seconds - new frequency is -100
Cbc0014I Cut generator 4 (MixedIntegerRounding2) - 0 row cuts average 0.0 elements, 0 column cuts (0 active)  in 0.000 seconds - new frequency is -100
Cbc0014I Cut generator 5 (FlowCover) - 0 row cuts average 0.0 elements, 0 column cuts (0 active)  in 0.000 seconds - new frequency is -100
Cbc0014I Cut generator 6 (TwoMirCuts) - 0 row cuts average 0.0 elements, 0 column cuts (0 active)  in 0.000 seconds - new frequency is -100
Cbc0014I Cut generator 7 (ZeroHalf) - 0 row cuts average 0.0 elements, 0 column cuts (0 active)  in 0.000 seconds - new frequency is -100
Cbc0010I After 2 nodes, 3 on tree, 1480.6171 best solution, best possible 1302.0042 (2.96 seconds)
Cbc0010I After 3 nodes, 4 on tree, 1480.6171 best solution, best possible 1302.0042 (3.67 seconds)
Cbc0010I After 5 nodes, 6 on tree, 1480.6171 best solution, best possible 1302.0042 (4.84 seconds)
Cbc0010I After 7 nodes, 8 on tree, 1480.6171 best solution, best possible 1302.0042 (6.00 seconds)
Cbc0010I After 9 nodes, 10 on tree, 1480.6171 best solution, best possible 1302.0042 (7.11 seconds)
Cbc0010I After 11 nodes, 12 on tree, 1480.6171 best solution, best possible 1302.0042 (8.27 seconds)
Cbc0010I After 13 nodes, 13 on tree, 1480.6171 best solution, best possible 1302.0042 (9.09 seconds)
Cbc0010I After 15 nodes, 15 on tree, 1480.6171 best solution, best possible 1302.0042 (10.12 seconds)
Cbc0010I After 17 nodes, 16 on tree, 1480.6171 best solution, best possible 1302.0042 (10.91 seconds)
Cbc0010I After 21 nodes, 20 on tree, 1480.6171 best solution, best possible 1302.0042 (11.75 seconds)
Cbc0010I After 25 nodes, 22 on tree, 1480.6171 best solution, best possible 1302.0042 (12.51 seconds)
Cbc0010I After 28 nodes, 24 on tree, 1480.6171 best solution, best possible 1302.0042 (13.26 seconds)
Cbc0010I After 34 nodes, 24 on tree, 1480.6171 best solution, best possible 1302.0042 (13.98 seconds)
Cbc0010I After 39 nodes, 22 on tree, 1480.6171 best solution, best possible 1302.0042 (15.05 seconds)
Cbc0010I After 45 nodes, 24 on tree, 1480.6171 best solution, best possible 1302.0042 (15.83 seconds)
Cbc0010I After 50 nodes, 24 on tree, 1480.6171 best solution, best possible 1302.0042 (16.71 seconds)
Cbc0010I After 56 nodes, 29 on tree, 1480.6171 best solution, best possible 1302.0042 (17.48 seconds)
Cbc0010I After 61 nodes, 29 on tree, 1480.6171 best solution, best possible 1302.0042 (18.21 seconds)
Cbc0010I After 67 nodes, 34 on tree, 1480.6171 best solution, best possible 1302.0042 (18.92 seconds)
Cbc0010I After 72 nodes, 34 on tree, 1480.6171 best solution, best possible 1302.0042 (19.70 seconds)
Cbc0010I After 78 nodes, 34 on tree, 1480.6171 best solution, best possible 1302.0042 (20.44 seconds)
Cbc0010I After 83 nodes, 35 on tree, 1480.6171 best solution, best possible 1302.0042 (21.36 seconds)
Cbc0010I After 86 nodes, 37 on tree, 1480.6171 best solution, best possible 1302.0042 (22.22 seconds)
Cbc0010I After 91 nodes, 36 on tree, 1480.6171 best solution, best possible 1302.0042 (23.04 seconds)
Cbc0010I After 97 nodes, 34 on tree, 1480.6171 best solution, best possible 1302.0042 (23.79 seconds)
Cbc0010I After 102 nodes, 34 on tree, 1480.6171 best solution, best possible 1302.0042 (24.64 seconds)
Cbc0010I After 108 nodes, 39 on tree, 1480.6171 best solution, best possible 1302.0042 (25.46 seconds)
Cbc0010I After 115 nodes, 38 on tree, 1480.6171 best solution, best possible 1302.0042 (26.17 seconds)
Cbc0010I After 119 nodes, 41 on tree, 1480.6171 best solution, best possible 1302.0042 (26.89 seconds)
Cbc0010I After 127 nodes, 39 on tree, 1480.6171 best solution, best possible 1302.0042 (27.71 seconds)
Cbc0010I After 134 nodes, 39 on tree, 1480.6171 best solution, best possible 1302.0042 (28.61 seconds)
Cbc0010I After 140 nodes, 38 on tree, 1480.6171 best solution, best possible 1302.0042 (29.31 seconds)
Cbc0010I After 149 nodes, 39 on tree, 1480.6171 best solution, best possible 1302.0042 (30.04 seconds)
Cbc0010I After 153 nodes, 40 on tree, 1480.6171 best solution, best possible 1302.0042 (30.75 seconds)
Cbc0010I After 159 nodes, 38 on tree, 1480.6171 best solution, best possible 1302.0042 (31.57 seconds)
Cbc0010I After 165 nodes, 42 on tree, 1480.6171 best solution, best possible 1302.0042 (32.51 seconds)
Cbc0010I After 170 nodes, 45 on tree, 1480.6171 best solution, best possible 1302.0042 (33.27 seconds)
Cbc0010I After 182 nodes, 41 on tree, 1480.6171 best solution, best possible 1302.0042 (34.06 seconds)
Cbc0010I After 189 nodes, 42 on tree, 1480.6171 best solution, best possible 1302.0042 (34.82 seconds)
Cbc0010I After 196 nodes, 41 on tree, 1480.6171 best solution, best possible 1302.0042 (35.61 seconds)
Cbc0010I After 203 nodes, 44 on tree, 1480.6171 best solution, best possible 1302.0042 (36.35 seconds)
Cbc0010I After 209 nodes, 47 on tree, 1480.6171 best solution, best possible 1302.0042 (37.07 seconds)
Cbc0010I After 214 nodes, 49 on tree, 1480.6171 best solution, best possible 1302.0042 (37.82 seconds)
Cbc0010I After 221 nodes, 52 on tree, 1480.6171 best solution, best possible 1302.0042 (38.56 seconds)
Cbc0010I After 230 nodes, 54 on tree, 1480.6171 best solution, best possible 1302.0042 (39.47 seconds)
Cbc0010I After 236 nodes, 53 on tree, 1480.6171 best solution, best possible 1302.0042 (40.19 seconds)
Cbc0010I After 245 nodes, 53 on tree, 1480.6171 best solution, best possible 1302.0042 (40.95 seconds)
Cbc0010I After 252 nodes, 55 on tree, 1480.6171 best solution, best possible 1302.0042 (41.70 seconds)
Cbc0010I After 258 nodes, 55 on tree, 1480.6171 best solution, best possible 1302.0042 (42.52 seconds)
Cbc0010I After 266 nodes, 53 on tree, 1480.6171 best solution, best possible 1302.0042 (43.34 seconds)
Cbc0010I After 273 nodes, 53 on tree, 1480.6171 best solution, best possible 1302.0042 (44.06 seconds)
Cbc0010I After 285 nodes, 52 on tree, 1480.6171 best solution, best possible 1302.0042 (44.83 seconds)
Cbc0004I Integer solution of 1464.2947 found after 38031 iterations and 286 nodes (45.07 seconds)
Cbc0004I Integer solution of 1464.2486 found after 38218 iterations and 287 nodes (45.32 seconds)
Cbc0010I After 289 nodes, 39 on tree, 1464.2486 best solution, best possible 1302.0042 (45.73 seconds)
Cbc0010I After 292 nodes, 38 on tree, 1464.2486 best solution, best possible 1302.0042 (46.53 seconds)
Cbc0010I After 295 nodes, 38 on tree, 1464.2486 best solution, best possible 1302.0042 (47.43 seconds)
Cbc0004I Integer solution of 1462.4711 found after 39845 iterations and 299 nodes (48.36 seconds)
Cbc0010I After 299 nodes, 37 on tree, 1462.4711 best solution, best possible 1302.0042 (48.37 seconds)
Cbc0004I Integer solution of 1462.425 found after 39974 iterations and 300 nodes (48.72 seconds)
Cbc0010I After 304 nodes, 34 on tree, 1462.425 best solution, best possible 1302.0042 (49.14 seconds)
Cbc0010I After 310 nodes, 32 on tree, 1462.425 best solution, best possible 1302.0042 (49.84 seconds)
Cbc0010I After 313 nodes, 34 on tree, 1462.425 best solution, best possible 1302.0042 (50.77 seconds)
Cbc0010I After 314 nodes, 34 on tree, 1462.425 best solution, best possible 1302.0042 (51.58 seconds)
Cbc0010I After 321 nodes, 31 on tree, 1462.425 best solution, best possible 1302.0042 (52.48 seconds)
Cbc0010I After 324 nodes, 33 on tree, 1462.425 best solution, best possible 1302.0042 (53.49 seconds)
Cbc0010I After 328 nodes, 36 on tree, 1462.425 best solution, best possible 1302.0042 (54.41 seconds)
Cbc0010I After 331 nodes, 38 on tree, 1462.425 best solution, best possible 1302.0042 (55.18 seconds)
Cbc0004I Integer solution of 1432.8502 found after 43638 iterations and 334 nodes (55.78 seconds)
Cbc0010I After 337 nodes, 27 on tree, 1432.8502 best solution, best possible 1302.0042 (56.05 seconds)
Cbc0010I After 340 nodes, 29 on tree, 1432.8502 best solution, best possible 1302.0042 (56.82 seconds)
Cbc0010I After 344 nodes, 31 on tree, 1432.8502 best solution, best possible 1302.0042 (57.71 seconds)
Cbc0004I Integer solution of 1431.9166 found after 44929 iterations and 348 nodes (58.48 seconds)
Cbc0010I After 348 nodes, 31 on tree, 1431.9166 best solution, best possible 1302.0042 (58.49 seconds)
Cbc0010I After 354 nodes, 31 on tree, 1431.9166 best solution, best possible 1302.0042 (59.32 seconds)
Cbc0010I After 358 nodes, 33 on tree, 1431.9166 best solution, best possible 1302.0042 (60.10 seconds)
Cbc0010I After 362 nodes, 35 on tree, 1431.9166 best solution, best possible 1302.0042 (60.86 seconds)
Cbc0010I After 368 nodes, 39 on tree, 1431.9166 best solution, best possible 1302.0042 (61.66 seconds)
Cbc0010I After 374 nodes, 39 on tree, 1431.9166 best solution, best possible 1302.0042 (62.43 seconds)
Cbc0010I After 380 nodes, 37 on tree, 1431.9166 best solution, best possible 1302.0042 (63.14 seconds)
Cbc0004I Integer solution of 1421.1216 found after 47011 iterations and 383 nodes (63.70 seconds)
Cbc0010I After 387 nodes, 32 on tree, 1421.1216 best solution, best possible 1302.0042 (63.92 seconds)
Cbc0010I After 390 nodes, 33 on tree, 1421.1216 best solution, best possible 1302.0042 (64.64 seconds)
Cbc0010I After 398 nodes, 30 on tree, 1421.1216 best solution, best possible 1302.0042 (65.57 seconds)
Cbc0010I After 401 nodes, 31 on tree, 1421.1216 best solution, best possible 1302.0042 (66.44 seconds)
Cbc0010I After 404 nodes, 32 on tree, 1421.1216 best solution, best possible 1302.0042 (67.17 seconds)
Cbc0010I After 408 nodes, 34 on tree, 1421.1216 best solution, best possible 1302.0042 (67.92 seconds)
Cbc0010I After 423 nodes, 30 on tree, 1421.1216 best solution, best possible 1302.0042 (68.79 seconds)
Cbc0010I After 428 nodes, 30 on tree, 1421.1216 best solution, best possible 1302.0042 (69.54 seconds)
Cbc0010I After 434 nodes, 32 on tree, 1421.1216 best solution, best possible 1302.0042 (70.30 seconds)
Cbc0010I After 438 nodes, 35 on tree, 1421.1216 best solution, best possible 1302.0042 (71.07 seconds)
Cbc0010I After 445 nodes, 35 on tree, 1421.1216 best solution, best possible 1302.0042 (71.85 seconds)
Cbc0010I After 453 nodes, 32 on tree, 1421.1216 best solution, best possible 1302.0042 (72.75 seconds)
Cbc0010I After 461 nodes, 30 on tree, 1421.1216 best solution, best possible 1302.0042 (73.64 seconds)
Cbc0010I After 468 nodes, 30 on tree, 1421.1216 best solution, best possible 1302.0042 (74.35 seconds)
Cbc0010I After 472 nodes, 32 on tree, 1421.1216 best solution, best possible 1302.0042 (75.11 seconds)
Cbc0004I Integer solution of 1419.7719 found after 54081 iterations and 476 nodes (75.99 seconds)
Cbc0010I After 476 nodes, 32 on tree, 1419.7719 best solution, best possible 1302.0042 (76.00 seconds)
Cbc0010I After 485 nodes, 27 on tree, 1419.7719 best solution, best possible 1302.0042 (76.72 seconds)
Cbc0010I After 490 nodes, 27 on tree, 1419.7719 best solution, best possible 1302.0042 (77.62 seconds)
Cbc0010I After 501 nodes, 26 on tree, 1419.7719 best solution, best possible 1302.0042 (78.51 seconds)
Cbc0010I After 508 nodes, 30 on tree, 1419.7719 best solution, best possible 1302.0042 (79.21 seconds)
Cbc0004I Integer solution of 1418.9307 found after 57721 iterations and 514 nodes (80.03 seconds)
Cbc0010I After 514 nodes, 29 on tree, 1418.9307 best solution, best possible 1302.0042 (80.03 seconds)
Cbc0010I After 521 nodes, 26 on tree, 1418.9307 best solution, best possible 1302.0042 (80.83 seconds)
Cbc0010I After 524 nodes, 25 on tree, 1418.9307 best solution, best possible 1302.0042 (81.60 seconds)
Cbc0010I After 530 nodes, 29 on tree, 1418.9307 best solution, best possible 1302.0042 (82.50 seconds)
Cbc0010I After 535 nodes, 28 on tree, 1418.9307 best solution, best possible 1302.0042 (83.26 seconds)
Cbc0004I Integer solution of 1417.9971 found after 61702 iterations and 540 nodes (84.35 seconds)
Cbc0010I After 540 nodes, 28 on tree, 1417.9971 best solution, best possible 1302.0042 (84.35 seconds)
Cbc0010I After 550 nodes, 24 on tree, 1417.9971 best solution, best possible 1302.0042 (85.06 seconds)
Cbc0010I After 555 nodes, 25 on tree, 1417.9971 best solution, best possible 1302.0042 (85.78 seconds)
Cbc0010I After 560 nodes, 26 on tree, 1417.9971 best solution, best possible 1302.0042 (86.52 seconds)
Cbc0010I After 567 nodes, 27 on tree, 1417.9971 best solution, best possible 1302.0042 (87.50 seconds)
Cbc0010I After 581 nodes, 19 on tree, 1417.9971 best solution, best possible 1302.0042 (88.23 seconds)
Cbc0010I After 588 nodes, 17 on tree, 1417.9971 best solution, best possible 1302.0042 (88.98 seconds)
Cbc0010I After 598 nodes, 14 on tree, 1417.9971 best solution, best possible 1302.0042 (89.70 seconds)
Cbc0010I After 605 nodes, 14 on tree, 1417.9971 best solution, best possible 1302.0042 (90.48 seconds)
Cbc0010I After 613 nodes, 12 on tree, 1417.9971 best solution, best possible 1302.0042 (91.18 seconds)
Cbc0010I After 625 nodes, 8 on tree, 1417.9971 best solution, best possible 1302.0042 (91.89 seconds)
Cbc0010I After 631 nodes, 8 on tree, 1417.9971 best solution, best possible 1302.0042 (92.73 seconds)
Cbc0010I After 638 nodes, 5 on tree, 1417.9971 best solution, best possible 1302.0042 (93.62 seconds)
Cbc0010I After 646 nodes, 8 on tree, 1417.9971 best solution, best possible 1302.0042 (94.32 seconds)
Cbc0010I After 652 nodes, 7 on tree, 1417.9971 best solution, best possible 1302.0042 (95.04 seconds)
Cbc0010I After 658 nodes, 5 on tree, 1417.9971 best solution, best possible 1302.0042 (95.74 seconds)
Cbc0010I After 668 nodes, 3 on tree, 1417.9971 best solution, best possible 1302.0042 (96.71 seconds)
Cbc0010I After 673 nodes, 8 on tree, 1417.9971 best solution, best possible 1302.0042 (97.53 seconds)
Cbc0010I After 681 nodes, 11 on tree, 1417.9971 best solution, best possible 1302.0042 (98.33 seconds)
Cbc0010I After 690 nodes, 8 on tree, 1417.9971 best solution, best possible 1302.0042 (99.08 seconds)
Cbc0010I After 694 nodes, 10 on tree, 1417.9971 best solution, best possible 1302.0042 (99.98 seconds)
Cbc0010I After 700 nodes, 11 on tree, 1417.9971 best solution, best possible 1302.0042 (100.73 seconds)
Cbc0010I After 708 nodes, 11 on tree, 1417.9971 best solution, best possible 1302.0042 (101.43 seconds)
Cbc0010I After 716 nodes, 10 on tree, 1417.9971 best solution, best possible 1302.0042 (102.24 seconds)
Cbc0010I After 725 nodes, 7 on tree, 1417.9971 best solution, best possible 1302.0042 (102.95 seconds)
Cbc0010I After 733 nodes, 7 on tree, 1417.9971 best solution, best possible 1302.0042 (103.84 seconds)
Cbc0010I After 740 nodes, 8 on tree, 1417.9971 best solution, best possible 1302.0042 (104.59 seconds)
Cbc0010I After 749 nodes, 7 on tree, 1417.9971 best solution, best possible 1302.0042 (105.30 seconds)
Cbc0010I After 759 nodes, 4 on tree, 1417.9971 best solution, best possible 1302.0042 (106.04 seconds)
Cbc0010I After 764 nodes, 7 on tree, 1417.9971 best solution, best possible 1302.0042 (106.85 seconds)
Cbc0010I After 771 nodes, 7 on tree, 1417.9971 best solution, best possible 1302.0042 (107.57 seconds)
Cbc0010I After 780 nodes, 2 on tree, 1417.9971 best solution, best possible 1302.0042 (108.43 seconds)
Cbc0010I After 785 nodes, 6 on tree, 1417.9971 best solution, best possible 1302.0042 (109.33 seconds)
Cbc0010I After 789 nodes, 8 on tree, 1417.9971 best solution, best possible 1302.0042 (110.04 seconds)
Cbc0010I After 795 nodes, 9 on tree, 1417.9971 best solution, best possible 1302.0042 (110.80 seconds)
Cbc0010I After 807 nodes, 4 on tree, 1417.9971 best solution, best possible 1302.0042 (111.62 seconds)
Cbc0010I After 814 nodes, 1 on tree, 1417.9971 best solution, best possible 1307.3352 (112.64 seconds)
Cbc0010I After 816 nodes, 3 on tree, 1417.9971 best solution, best possible 1307.3352 (113.46 seconds)
Cbc0010I After 819 nodes, 6 on tree, 1417.9971 best solution, best possible 1307.3352 (114.27 seconds)
Cbc0010I After 824 nodes, 9 on tree, 1417.9971 best solution, best possible 1307.3352 (115.13 seconds)
Cbc0010I After 829 nodes, 12 on tree, 1417.9971 best solution, best possible 1307.3352 (115.84 seconds)
Cbc0010I After 836 nodes, 16 on tree, 1417.9971 best solution, best possible 1307.3352 (116.59 seconds)
Cbc0010I After 846 nodes, 20 on tree, 1417.9971 best solution, best possible 1307.3352 (117.32 seconds)
Cbc0004I Integer solution of 1414.3202 found after 85456 iterations and 850 nodes (117.87 seconds)
Cbc0004I Integer solution of 1406.9636 found after 85709 iterations and 852 nodes (118.11 seconds)
Cbc0010I After 852 nodes, 19 on tree, 1406.9636 best solution, best possible 1307.3352 (118.12 seconds)
Cbc0010I After 859 nodes, 19 on tree, 1406.9636 best solution, best possible 1307.3352 (118.84 seconds)
Cbc0004I Integer solution of 1406.03 found after 86647 iterations and 861 nodes (119.28 seconds)
Cbc0010I After 865 nodes, 20 on tree, 1406.03 best solution, best possible 1307.3352 (119.65 seconds)
Cbc0010I After 871 nodes, 24 on tree, 1406.03 best solution, best possible 1307.3352 (120.41 seconds)
Cbc0010I After 876 nodes, 26 on tree, 1406.03 best solution, best possible 1307.3352 (121.27 seconds)
Cbc0010I After 885 nodes, 24 on tree, 1406.03 best solution, best possible 1307.3352 (122.00 seconds)
Cbc0004I Integer solution of 1406.0188 found after 90544 iterations and 892 nodes (122.63 seconds)
Cbc0010I After 896 nodes, 21 on tree, 1406.0188 best solution, best possible 1307.3352 (122.74 seconds)
Cbc0010I After 902 nodes, 24 on tree, 1406.0188 best solution, best possible 1307.3352 (123.48 seconds)
Cbc0010I After 907 nodes, 25 on tree, 1406.0188 best solution, best possible 1307.3352 (124.18 seconds)
Cbc0004I Integer solution of 1405.6139 found after 92804 iterations and 913 nodes (125.16 seconds)
Cbc0010I After 913 nodes, 26 on tree, 1405.6139 best solution, best possible 1307.3352 (125.16 seconds)
Cbc0010I After 920 nodes, 26 on tree, 1405.6139 best solution, best possible 1307.3352 (125.88 seconds)
Cbc0004I Integer solution of 1405.21 found after 93721 iterations and 922 nodes (126.15 seconds)
Cbc0004I Integer solution of 1404.2765 found after 93812 iterations and 925 nodes (126.51 seconds)
Cbc0010I After 928 nodes, 23 on tree, 1404.2765 best solution, best possible 1307.3352 (126.73 seconds)
Cbc0010I After 933 nodes, 25 on tree, 1404.2765 best solution, best possible 1307.3352 (127.53 seconds)
Cbc0010I After 942 nodes, 26 on tree, 1404.2765 best solution, best possible 1307.3352 (128.41 seconds)
Cbc0010I After 949 nodes, 27 on tree, 1404.2765 best solution, best possible 1307.3352 (129.12 seconds)
Cbc0010I After 959 nodes, 24 on tree, 1404.2765 best solution, best possible 1307.3352 (129.83 seconds)
Cbc0010I After 968 nodes, 23 on tree, 1404.2765 best solution, best possible 1307.3352 (130.62 seconds)
Cbc0010I After 973 nodes, 23 on tree, 1404.2765 best solution, best possible 1307.3352 (131.38 seconds)
Cbc0010I After 978 nodes, 24 on tree, 1404.2765 best solution, best possible 1307.3352 (132.10 seconds)
Cbc0010I After 988 nodes, 22 on tree, 1404.2765 best solution, best possible 1307.3352 (132.95 seconds)
Cbc0010I After 993 nodes, 23 on tree, 1404.2765 best solution, best possible 1307.3352 (133.73 seconds)
Cbc0010I After 1002 nodes, 23 on tree, 1404.2765 best solution, best possible 1307.3352 (134.53 seconds)
Cbc0010I After 1007 nodes, 28 on tree, 1404.2765 best solution, best possible 1307.3352 (135.28 seconds)
Cbc0010I After 1023 nodes, 22 on tree, 1404.2765 best solution, best possible 1307.3352 (136.02 seconds)
Cbc0010I After 1031 nodes, 23 on tree, 1404.2765 best solution, best possible 1307.3352 (136.73 seconds)
Cbc0010I After 1044 nodes, 18 on tree, 1404.2765 best solution, best possible 1307.3352 (137.44 seconds)
Cbc0010I After 1051 nodes, 18 on tree, 1404.2765 best solution, best possible 1307.3352 (138.18 seconds)
Cbc0010I After 1058 nodes, 19 on tree, 1404.2765 best solution, best possible 1307.3352 (138.93 seconds)
Cbc0010I After 1065 nodes, 17 on tree, 1404.2765 best solution, best possible 1307.3352 (139.70 seconds)
Cbc0010I After 1077 nodes, 12 on tree, 1404.2765 best solution, best possible 1307.3352 (140.42 seconds)
Cbc0010I After 1088 nodes, 9 on tree, 1404.2765 best solution, best possible 1307.3352 (141.15 seconds)
Cbc0010I After 1099 nodes, 6 on tree, 1404.2765 best solution, best possible 1307.3352 (141.87 seconds)
Cbc0010I After 1103 nodes, 10 on tree, 1404.2765 best solution, best possible 1307.3352 (142.79 seconds)
Cbc0010I After 1111 nodes, 11 on tree, 1404.2765 best solution, best possible 1307.3352 (143.57 seconds)
Cbc0010I After 1121 nodes, 8 on tree, 1404.2765 best solution, best possible 1307.3352 (144.43 seconds)
Cbc0010I After 1129 nodes, 8 on tree, 1404.2765 best solution, best possible 1307.3352 (145.20 seconds)
Cbc0010I After 1137 nodes, 6 on tree, 1404.2765 best solution, best possible 1307.3352 (145.91 seconds)
Cbc0010I After 1141 nodes, 10 on tree, 1404.2765 best solution, best possible 1307.3352 (146.70 seconds)
Cbc0010I After 1150 nodes, 9 on tree, 1404.2765 best solution, best possible 1307.3352 (147.47 seconds)
Cbc0010I After 1156 nodes, 7 on tree, 1404.2765 best solution, best possible 1307.3352 (148.25 seconds)
Cbc0010I After 1163 nodes, 6 on tree, 1404.2765 best solution, best possible 1307.3352 (149.02 seconds)
Cbc0010I After 1169 nodes, 6 on tree, 1404.2765 best solution, best possible 1307.3352 (149.77 seconds)
Cbc0010I After 1177 nodes, 4 on tree, 1404.2765 best solution, best possible 1307.3352 (150.57 seconds)
Cbc0010I After 1182 nodes, 9 on tree, 1404.2765 best solution, best possible 1307.3352 (151.45 seconds)
Cbc0010I After 1186 nodes, 13 on tree, 1404.2765 best solution, best possible 1307.3352 (152.18 seconds)
Cbc0010I After 1195 nodes, 11 on tree, 1404.2765 best solution, best possible 1307.3352 (152.94 seconds)
Cbc0010I After 1202 nodes, 11 on tree, 1404.2765 best solution, best possible 1307.3352 (153.73 seconds)
Cbc0010I After 1211 nodes, 10 on tree, 1404.2765 best solution, best possible 1307.3352 (154.70 seconds)
Cbc0010I After 1216 nodes, 11 on tree, 1404.2765 best solution, best possible 1307.3352 (155.47 seconds)
Cbc0010I After 1223 nodes, 10 on tree, 1404.2765 best solution, best possible 1307.3352 (156.27 seconds)
Cbc0010I After 1231 nodes, 7 on tree, 1404.2765 best solution, best possible 1307.3352 (156.99 seconds)
Cbc0010I After 1237 nodes, 8 on tree, 1404.2765 best solution, best possible 1307.3352 (157.71 seconds)
Cbc0010I After 1247 nodes, 13 on tree, 1404.2765 best solution, best possible 1307.3352 (158.42 seconds)
Cbc0010I After 1257 nodes, 11 on tree, 1404.2765 best solution, best possible 1307.3352 (159.13 seconds)
Cbc0010I After 1265 nodes, 12 on tree, 1404.2765 best solution, best possible 1307.3352 (159.88 seconds)
Cbc0010I After 1275 nodes, 8 on tree, 1404.2765 best solution, best possible 1307.3352 (160.64 seconds)
Cbc0010I After 1285 nodes, 6 on tree, 1404.2765 best solution, best possible 1307.3352 (161.47 seconds)
Cbc0010I After 1291 nodes, 12 on tree, 1404.2765 best solution, best possible 1307.3352 (162.24 seconds)
Cbc0010I After 1303 nodes, 5 on tree, 1404.2765 best solution, best possible 1307.3352 (162.97 seconds)
Cbc0010I After 1308 nodes, 7 on tree, 1404.2765 best solution, best possible 1307.3352 (163.72 seconds)
Cbc0010I After 1318 nodes, 6 on tree, 1404.2765 best solution, best possible 1307.3352 (164.48 seconds)
Cbc0010I After 1324 nodes, 6 on tree, 1404.2765 best solution, best possible 1307.3352 (165.28 seconds)
Cbc0010I After 1332 nodes, 4 on tree, 1404.2765 best solution, best possible 1307.3352 (165.99 seconds)
Cbc0010I After 1338 nodes, 7 on tree, 1404.2765 best solution, best possible 1307.3352 (166.81 seconds)
Cbc0010I After 1345 nodes, 4 on tree, 1404.2765 best solution, best possible 1307.3352 (167.56 seconds)
Cbc0010I After 1357 nodes, 2 on tree, 1404.2765 best solution, best possible 1307.3352 (168.35 seconds)
Cbc0010I After 1364 nodes, 9 on tree, 1404.2765 best solution, best possible 1307.33Modell wird erstellt...
Suche Startlösung...
None
Suche optimale Lösung...
OptimizationStatus.OPTIMAL
C:\Users\Philip\Documents\programmieren\python\bwinf41-2\weniger-krumme-touren\beispiele\random\70\702.txt
Lösung gefunden!
52 (169.11 seconds)
Cbc0010I After 1374 nodes, 7 on tree, 1404.2765 best solution, best possible 1307.3352 (170.02 seconds)
Cbc0010I After 1383 nodes, 6 on tree, 1404.2765 best solution, best possible 1307.3352 (170.73 seconds)
Cbc0010I After 1393 nodes, 4 on tree, 1404.2765 best solution, best possible 1307.3352 (171.51 seconds)
Cbc0010I After 1403 nodes, 4 on tree, 1404.2765 best solution, best possible 1307.3352 (172.34 seconds)
Cbc0010I After 1416 nodes, 1 on tree, 1404.2765 best solution, best possible 1390.4068 (173.12 seconds)
Cbc0001I Search completed - best objective 1404.276459779582, took 128507 iterations and 1422 nodes (173.40 seconds)
Cbc0032I Strong branching done 8552 times (136799 iterations), fathomed 260 nodes and fixed 1011 variables
Cbc0035I Maximum depth 47, 202922 variables fixed on reduced cost
Total time (CPU seconds):       173.61   (Wallclock seconds):       173.61

